\ Model linear program
\ LP format - for model browsing. Use MPS format to capture full model detail.
Maximize
  4 x1 + 3 x2 + 4 x3
Subject To
 c1: 3 x1 + 2 x2 + x3 <= 8
 c2: 2 x1 + 2 x2 + 2 x3 <= 9
 c3: 4 x1 + 5 x2 + 2 x3 <= 10
Bounds
End
